(set-logic HORN)

(declare-datatypes ((node 0)) (((node  (next Int) (data Int)))))
(declare-datatypes ((HeapObject 0)) (((O_Int  (getInt Int)) (O_UInt  (getUInt Int)) (O_Addr  (getAddr Int)) (O_node  (getnode node)) (defObj ))))
(declare-datatypes ((Heap 0)) (((HeapCtor  (HeapSize Int) (HeapContents (Array Int HeapObject))))))

(declare-fun |inv_main28| ( Heap Int Int Int Int Int Int Int Int ) Bool)
(declare-fun |inv_main4| ( Heap Int Int ) Bool)
(declare-fun |inv_main88| ( Heap Int Int Int Int Int Int ) Bool)
(declare-fun |inv_main76| ( Heap Int Int Int Int Int ) Bool)
(declare-fun |inv_main69| ( Heap Int Int Int Int Int Int Int Int Int ) Bool)
(declare-fun |inv_main21| ( Heap Int Int Int Int Int Int ) Bool)
(declare-fun |inv_main12| ( Heap Int Int Int Int Int Int ) Bool)
(declare-fun |inv_main59| ( Heap Int Int Int Int Int Int Int Int Int ) Bool)
(declare-fun |inv_main95| ( Heap Int Int Int Int Int ) Bool)
(declare-fun |CHC_COMP_FALSE| ( ) Bool)
(declare-fun |inv_main67| ( Heap Int Int Int Int Int Int Int Int Int ) Bool)
(declare-fun |inv_main65| ( Heap Int Int Int Int Int Int Int Int Int ) Bool)
(declare-fun |inv_main55| ( Heap Int Int Int Int Int Int Int Int ) Bool)
(declare-fun |inv_main34| ( Heap Int Int Int Int Int Int Int Int ) Bool)
(declare-fun |inv_main18| ( Heap Int Int Int Int Int Int ) Bool)
(declare-fun |inv_main36| ( Heap Int Int Int Int Int Int Int ) Bool)
(declare-fun |inv_main70| ( Heap Int Int Int Int Int Int Int Int Int ) Bool)
(declare-fun |inv_main49| ( Heap Int Int Int Int Int Int Int Int ) Bool)
(declare-fun |inv_main73| ( Heap Int Int Int Int Int ) Bool)
(declare-fun |inv_main71| ( Heap Int Int Int Int Int Int Int Int Int ) Bool)
(declare-fun |inv_main92| ( Heap Int Int Int Int Int Int Int ) Bool)
(declare-fun |inv_main22| ( Heap Int Int Int Int Int Int ) Bool)
(declare-fun |inv_main62| ( Heap Int Int Int Int Int Int Int Int Int ) Bool)

(assert
  (forall ( (A Heap) (v_1 Int) (v_2 Int) ) 
    (=>
      (and
        (and (= A (HeapCtor 0 ((as const (Array Int HeapObject)) defObj)))
     (= 2 v_1)
     (= 1 v_2))
      )
      (inv_main4 A v_1 v_2)
    )
  )
)
(assert
  (forall ( (A Int) (B Int) (C Int) (D Int) (E Int) (F Int) (G Int) (H Int) (I Int) (J Heap) (v_10 Int) ) 
    (=>
      (and
        (inv_main59 J I H G F E D C B A)
        (and (<= 1 D) (= v_10 A))
      )
      (inv_main62 J I H G F E D C A v_10)
    )
  )
)
(assert
  (forall ( (A Int) (B Int) (C Int) (D Int) (E Int) (F Heap) ) 
    (=>
      (and
        (inv_main73 F E D C B A)
        (let ((a!1 (ite (and (not (<= B 0)) (>= (HeapSize F) B))
                (select (HeapContents F) B)
                defObj)))
(let ((a!2 (not (= D (data (getnode a!1))))))
  (and ((_ is O_node) a!1) a!2)))
      )
      (inv_main95 F E D C B A)
    )
  )
)
(assert
  (forall ( (A Int) (B Int) (C Int) (D Heap) (E Int) (F Int) (G Int) (H Int) (I Int) (J Int) (K Int) (L Int) (M Int) (N Heap) ) 
    (=>
      (and
        (inv_main76 N M L K J I)
        (let ((a!1 (ite (and (not (<= J 0)) (>= (HeapSize N) J))
                (select (HeapContents N) J)
                defObj)))
  (and (= C L)
       (= B J)
       (= H I)
       (not (= H G))
       (= G M)
       (= F (next (getnode a!1)))
       (= F E)
       (= E K)
       (= D N)
       ((_ is O_node) a!1)
       (= A (+ 1 H))))
      )
      (inv_main95 D G C E F A)
    )
  )
)
(assert
  (forall ( (A Int) (B Int) (C Int) (D Int) (E Int) (F Int) (G Int) (H Int) (I Int) (J Heap) ) 
    (=>
      (and
        (inv_main59 J I H G F E D C B A)
        (and (= B 0) (not (<= 1 D)) (= G 0))
      )
      (inv_main70 J I H G F E D C B A)
    )
  )
)
(assert
  (forall ( (A Int) (B Int) (C Int) (D Int) (E Int) (F Int) (G Int) (H Int) (I Int) (J Int) (K Int) (L Heap) (M Int) (N Int) (O Int) (P Int) (Q Int) (R Int) (S Int) (T Int) (U Int) (V Heap) ) 
    (=>
      (and
        (inv_main62 V U T S R Q P O N M)
        (let ((a!1 (ite (and (not (<= M 0)) (>= (HeapSize V) M))
                (select (HeapContents V) M)
                defObj)))
  (and (= I S)
       (= H R)
       (= G Q)
       (= F P)
       (= E O)
       (= D N)
       (= C M)
       (= B (next (getnode a!1)))
       (= K U)
       (= J T)
       (= L V)
       ((_ is O_node) a!1)
       (= A (+ (- 1) F))))
      )
      (inv_main59 L K J I H G A E D B)
    )
  )
)
(assert
  (forall ( (A Int) (B Int) (C Int) (D Int) (E Int) (F Int) (G Int) (H Int) (I Int) (J Int) (K Int) (L Int) (M Int) (N Int) (O Int) (P Int) (Q Heap) (R Heap) (S Int) (T Int) (U Int) (V Int) (W Int) (X Int) (Y Int) (Z Int) (A1 Heap) (v_27 Int) ) 
    (=>
      (and
        (inv_main55 A1 Z Y X W V U T S)
        (let ((a!1 (ite (and (not (<= S 0)) (>= (HeapSize A1) S))
                (select (HeapContents A1) S)
                defObj)))
(let ((a!2 (O_node (node (next (getnode a!1)) T))))
(let ((a!3 (ite (and (not (<= S 0)) (>= (HeapSize A1) S))
                (HeapCtor (HeapSize A1) (store (HeapContents A1) S a!2))
                A1)))
  (and (= E U)
       (= D C)
       (= C S)
       (= B 0)
       (= A T)
       (= N M)
       (= M Y)
       (= L K)
       (= K X)
       (= J I)
       (= I W)
       (= H G)
       (= G V)
       (= P O)
       (= O Z)
       (= R Q)
       (= Q a!3)
       ((_ is O_node) a!1)
       (= F E)
       (= v_27 L)))))
      )
      (inv_main59 R P N L J H F D B v_27)
    )
  )
)
(assert
  (forall ( (A Int) (B Int) (C Int) (D Int) (E Int) (F Int) (G Int) (H node) (I Heap) (J Int) (K Int) (L Int) (M Int) (N Int) (O Int) (P Int) (Q Heap) ) 
    (=>
      (and
        (inv_main21 Q P O N M L K)
        (let ((a!1 (HeapCtor (+ 1 (HeapSize Q))
                     (store (HeapContents Q) (+ 1 (HeapSize Q)) (O_node H)))))
  (and (= G P)
       (= D M)
       (= C L)
       (= B K)
       (= A M)
       (= F O)
       (= E N)
       (= J (+ 1 (HeapSize Q)))
       (= I a!1)
       (<= 2 N)
       (not (= 0 J))))
      )
      (inv_main28 I G F E D C B A J)
    )
  )
)
(assert
  (forall ( (A Int) (B Int) (C Int) (D Int) (E Int) (F node) (G Heap) (H Int) (I Int) (J Int) (K Heap) ) 
    (=>
      (and
        (inv_main4 K J I)
        (let ((a!1 (HeapCtor (+ 1 (HeapSize K))
                     (store (HeapContents K) (+ 1 (HeapSize K)) (O_node F)))))
  (and (= A I)
       (= H (+ 1 (HeapSize K)))
       (= E J)
       (= D I)
       (= C J)
       (= B I)
       (= G a!1)
       (not (= 0 H))))
      )
      (inv_main12 G E D C B A H)
    )
  )
)
(assert
  (forall ( (A Int) (B Int) (C Int) (D Heap) (E Int) (F Int) (G Int) (H Int) (I Int) (J Int) (K Int) (L Int) (M Int) (N Heap) (v_14 Int) ) 
    (=>
      (and
        (inv_main76 N M L K J I)
        (let ((a!1 (ite (and (not (<= J 0)) (>= (HeapSize N) J))
                (select (HeapContents N) J)
                defObj)))
  (and (= A (+ 1 G))
       (= C L)
       (= B J)
       (= H K)
       (= G I)
       (= G F)
       (= F M)
       (= E (next (getnode a!1)))
       (= E H)
       (= D N)
       ((_ is O_node) a!1)
       (not (= 0 H))
       (= v_14 H)))
      )
      (inv_main88 D F C H E A v_14)
    )
  )
)
(assert
  (forall ( (A Heap) (B Int) (C Int) (D Int) (E Int) (F Int) (G Int) (H Heap) ) 
    (=>
      (and
        (inv_main12 H G F E D C B)
        (let ((a!1 (ite (and (not (<= B 0)) (>= (HeapSize H) B))
                (select (HeapContents H) B)
                defObj)))
(let ((a!2 (O_node (node 0 (data (getnode a!1))))))
(let ((a!3 (ite (and (not (<= B 0)) (>= (HeapSize H) B))
                (HeapCtor (HeapSize H) (store (HeapContents H) B a!2))
                H)))
  (and ((_ is O_node) a!1) (= A a!3)))))
      )
      (inv_main18 A G F E D C B)
    )
  )
)
(assert
  (forall ( (A Int) (B Int) (C Int) (D Int) (E Int) (F Int) (G Heap) ) 
    (=>
      (and
        (inv_main21 G F E D C B A)
        (not (<= 2 D))
      )
      (inv_main22 G F E D C B A)
    )
  )
)
(assert
  (forall ( (A Int) (B Int) (C Int) (D Int) (E Int) (F Int) (G Heap) (H Int) (I Int) (J Int) (K Int) (L Int) (M Int) (N Int) (O Int) (P Int) (Q Int) (R Int) (S Int) (T Int) (U node) (V Heap) (W Heap) (X Int) (Y Int) (Z Int) (A1 Int) (B1 Int) (C1 Int) (D1 Int) (E1 Heap) (F1 Int) ) 
    (=>
      (and
        (inv_main22 E1 D1 C1 B1 A1 Z Y)
        (let ((a!1 (ite (and (not (<= Y 0)) (>= (HeapSize E1) Y))
                (select (HeapContents E1) Y)
                defObj))
      (a!4 (HeapCtor (+ 1 (HeapSize V))
                     (store (HeapContents V) (+ 1 (HeapSize V)) (O_node U))))
      (a!5 (not (<= 1 (+ F (* (- 2) F1)))))
      (a!6 (not (<= 1 (+ (* (- 1) F) (* 2 F1))))))
(let ((a!2 (O_node (node Z (data (getnode a!1))))))
(let ((a!3 (ite (and (not (<= Y 0)) (>= (HeapSize E1) Y))
                (HeapCtor (HeapSize E1) (store (HeapContents E1) Y a!2))
                E1)))
  (and (= E C1)
       (= D Z)
       (= C B1)
       (= B A1)
       (= A Y)
       (= K E)
       (= J I)
       (= I F1)
       (= H K)
       (= F D1)
       (= S F)
       (= R Q)
       (= Q E)
       (= P O)
       (= O D)
       (= N M)
       (= M 3)
       (= L K)
       (= T S)
       (= X (+ 1 (HeapSize V)))
       (= G a!3)
       (= W a!4)
       (= V G)
       ((_ is O_node) a!1)
       (<= (- 1) (+ (* (- 1) F) (* 2 F1)))
       (<= (- 1) (+ F (* (- 2) F1)))
       (or a!5 (<= 1 F))
       (or a!6 (<= F (- 1)))
       (not (= 0 X))))))
      )
      (inv_main49 W T R P N L J H X)
    )
  )
)
(assert
  (forall ( (A Int) (B Int) (C Int) (D Int) (E Int) (F Heap) (G Int) (H Int) (I Int) (J Int) (K Int) (L Int) (M Int) (N Heap) ) 
    (=>
      (and
        (inv_main76 N M L K J I)
        (let ((a!1 (ite (and (not (<= J 0)) (>= (HeapSize N) J))
                (select (HeapContents N) J)
                defObj)))
  (and (= A (+ 1 B))
       (= C J)
       (= B I)
       (= H (next (getnode a!1)))
       (not (= H G))
       (= G K)
       (= E M)
       (= F N)
       ((_ is O_node) a!1)
       (= D L)))
      )
      (inv_main73 F E D G H A)
    )
  )
)
(assert
  (forall ( (A Int) (B Int) (C Int) (D Int) (E Int) (F Int) (G Heap) (H Int) (I Int) (J Int) (K Int) (L Int) (M Int) (N Int) (O Int) (P Int) (Q Heap) (v_17 Int) (v_18 Int) ) 
    (=>
      (and
        (inv_main67 Q P O N M L K J I H)
        (let ((a!1 (ite (and (not (<= J 0)) (>= (HeapSize Q) J))
                (select (HeapContents Q) J)
                defObj)))
(let ((a!2 (O_node (node H (data (getnode a!1))))))
(let ((a!3 (ite (and (not (<= J 0)) (>= (HeapSize Q) J))
                (HeapCtor (HeapSize Q) (store (HeapContents Q) J a!2))
                Q)))
  (and (= C M)
       (= B L)
       (= A K)
       (= F P)
       (= E O)
       (= G a!3)
       ((_ is O_node) a!1)
       (= D N)
       (= v_17 D)
       (= 0 v_18)))))
      )
      (inv_main73 G F E D v_17 v_18)
    )
  )
)
(assert
  (forall ( (A Int) (B Int) (C Int) (D Int) (E Int) (F Int) (G Int) (H Int) (I Int) (J Heap) (K Int) (L Int) (M Int) (N Int) (O Int) (P Int) (Q Int) (R Int) (S Int) (T Heap) (v_20 Int) (v_21 Int) ) 
    (=>
      (and
        (inv_main71 T S R Q P O N M L K)
        (let ((a!1 (ite (and (not (<= Q 0)) (>= (HeapSize T) Q))
                (select (HeapContents T) Q)
                defObj)))
(let ((a!2 (O_node (node M (data (getnode a!1))))))
(let ((a!3 (ite (and (not (<= Q 0)) (>= (HeapSize T) Q))
                (HeapCtor (HeapSize T) (store (HeapContents T) Q a!2))
                T)))
  (and (= F P)
       (= E O)
       (= D N)
       (= C M)
       (= B L)
       (= A K)
       (= I S)
       (= H R)
       (= J a!3)
       ((_ is O_node) a!1)
       (= G Q)
       (= v_20 C)
       (= 0 v_21)))))
      )
      (inv_main73 J I H C v_20 v_21)
    )
  )
)
(assert
  (forall ( (A Int) (B Int) (C Int) (D Int) (E Int) (F Int) (G Int) (H Int) (I Int) (J Heap) (K Int) (L Int) (M Int) (N Int) (O Int) (P Int) (Q Int) (R Int) (S Int) (T Heap) (v_20 Int) (v_21 Int) ) 
    (=>
      (and
        (inv_main70 T S R Q P O N M L K)
        (let ((a!1 (ite (and (not (<= M 0)) (>= (HeapSize T) M))
                (select (HeapContents T) M)
                defObj)))
(let ((a!2 (O_node (node M (data (getnode a!1))))))
(let ((a!3 (ite (and (not (<= M 0)) (>= (HeapSize T) M))
                (HeapCtor (HeapSize T) (store (HeapContents T) M a!2))
                T)))
  (and (= F P)
       (= E O)
       (= D N)
       (= C M)
       (= B L)
       (= A K)
       (= I S)
       (= H R)
       (= J a!3)
       ((_ is O_node) a!1)
       (= G Q)
       (= v_20 C)
       (= 0 v_21)))))
      )
      (inv_main73 J I H C v_20 v_21)
    )
  )
)
(assert
  (forall ( (A Heap) (B Int) (C Int) (D Int) (E Int) (F Int) (G Int) (H Int) (I Int) (J Heap) ) 
    (=>
      (and
        (inv_main49 J I H G F E D C B)
        (let ((a!1 (ite (and (not (<= B 0)) (>= (HeapSize J) B))
                (select (HeapContents J) B)
                defObj)))
(let ((a!2 (O_node (node 0 (data (getnode a!1))))))
(let ((a!3 (ite (and (not (<= B 0)) (>= (HeapSize J) B))
                (HeapCtor (HeapSize J) (store (HeapContents J) B a!2))
                J)))
  (and ((_ is O_node) a!1) (= A a!3)))))
      )
      (inv_main55 A I H G F E D C B)
    )
  )
)
(assert
  (forall ( (A Heap) (B Int) (C Int) (D Int) (E Int) (F Int) (G Int) (H Int) (I Int) (J Heap) ) 
    (=>
      (and
        (inv_main28 J I H G F E D C B)
        (let ((a!1 (ite (and (not (<= B 0)) (>= (HeapSize J) B))
                (select (HeapContents J) B)
                defObj)))
(let ((a!2 (O_node (node 0 (data (getnode a!1))))))
(let ((a!3 (ite (and (not (<= B 0)) (>= (HeapSize J) B))
                (HeapCtor (HeapSize J) (store (HeapContents J) B a!2))
                J)))
  (and ((_ is O_node) a!1) (= A a!3)))))
      )
      (inv_main34 A I H G F E D C B)
    )
  )
)
(assert
  (forall ( (A Int) (B Int) (C Int) (D Int) (E Int) (F Heap) (G Int) (H Int) (I Int) (J Int) (K Int) (L Int) (M Int) (N Int) (O Heap) ) 
    (=>
      (and
        (inv_main88 O N M L K J I)
        (let ((a!1 (ite (and (not (<= I 0)) (>= (HeapSize O) I))
                (select (HeapContents O) I)
                defObj)))
  (and (= B K)
       (= A J)
       (= D M)
       (= C L)
       (= H (next (getnode a!1)))
       (not (= H G))
       (= G I)
       (= F O)
       ((_ is O_node) a!1)
       (= E N)))
      )
      (inv_main92 F E D C B A G H)
    )
  )
)
(assert
  (forall ( (A Int) (B Int) (C Int) (D Int) (E Int) (F Int) (G Heap) (H Int) (I Int) (J Int) (K Int) (L Int) (M Int) (N Int) (O Int) (P Heap) (Q Int) (R Int) (S Int) (T Int) (U Int) (V Int) (W Int) (X Int) (Y Int) (Z Heap) ) 
    (=>
      (and
        (inv_main92 Z Y X W V U T S)
        (let ((a!1 (ite (and (not (<= S 0)) (>= (HeapSize Z) S))
                (select (HeapContents Z) S)
                defObj))
      (a!2 (ite (and (not (<= I 0)) (>= (HeapSize P) I))
                (HeapCtor (HeapSize P) (store (HeapContents P) I defObj))
                P)))
  (and (= D M)
       (= C L)
       (= B K)
       (= A I)
       (= M W)
       (= L V)
       (= K U)
       (= J T)
       (= I S)
       (= H (next (getnode a!1)))
       (= F O)
       (= O Y)
       (= N X)
       (= R H)
       (not (= R Q))
       (= Q J)
       (= G a!2)
       (= P Z)
       ((_ is O_node) a!1)
       (= E N)))
      )
      (inv_main92 G F E D C B Q R)
    )
  )
)
(assert
  (forall ( (A Int) (B Int) (C Int) (D Int) (E Int) (F Heap) ) 
    (=>
      (and
        (inv_main73 F E D C B A)
        (let ((a!1 (ite (and (not (<= B 0)) (>= (HeapSize F) B))
                (select (HeapContents F) B)
                defObj)))
  (and ((_ is O_node) a!1) (= D (data (getnode a!1)))))
      )
      (inv_main76 F E D C B A)
    )
  )
)
(assert
  (forall ( (A Int) (B Int) (C Int) (D Int) (E Int) (F Int) (G Int) (H Int) (I Heap) (J Int) (K Int) (L Int) (M Int) (N Int) (O Int) (P Int) (Q Int) (R Heap) ) 
    (=>
      (and
        (inv_main34 R Q P O N M L K J)
        (let ((a!1 (ite (and (not (<= J 0)) (>= (HeapSize R) J))
                (select (HeapContents R) J)
                defObj)))
(let ((a!2 (O_node (node (next (getnode a!1)) K))))
(let ((a!3 (ite (and (not (<= J 0)) (>= (HeapSize R) J))
                (HeapCtor (HeapSize R) (store (HeapContents R) J a!2))
                R)))
  (and (= E N)
       (= D M)
       (= C L)
       (= B K)
       (= A J)
       (= G P)
       (= F O)
       (= I a!3)
       ((_ is O_node) a!1)
       (= H Q)))))
      )
      (inv_main36 I H G F E D C A)
    )
  )
)
(assert
  (forall ( (A Heap) (B Int) (C Int) (D Int) (E Int) (F Int) (G Int) (H Int) (I Int) (J Int) (K Heap) ) 
    (=>
      (and
        (inv_main69 K J I H G F E D C B)
        (let ((a!1 (ite (and (not (<= D 0)) (>= (HeapSize K) D))
                (select (HeapContents K) D)
                defObj)))
(let ((a!2 (O_node (node H (data (getnode a!1))))))
(let ((a!3 (ite (and (not (<= D 0)) (>= (HeapSize K) D))
                (HeapCtor (HeapSize K) (store (HeapContents K) D a!2))
                K)))
  (and ((_ is O_node) a!1) (= A a!3)))))
      )
      (inv_main71 A J I H G F E D C B)
    )
  )
)
(assert
  (forall ( (A Heap) (B Int) (C Int) (D Int) (E Int) (F Int) (G Int) (H Int) (I Int) (J Int) (K Heap) ) 
    (=>
      (and
        (inv_main65 K J I H G F E D C B)
        (let ((a!1 (ite (and (not (<= C 0)) (>= (HeapSize K) C))
                (select (HeapContents K) C)
                defObj)))
(let ((a!2 (O_node (node D (data (getnode a!1))))))
(let ((a!3 (ite (and (not (<= C 0)) (>= (HeapSize K) C))
                (HeapCtor (HeapSize K) (store (HeapContents K) C a!2))
                K)))
  (and ((_ is O_node) a!1) (= A a!3)))))
      )
      (inv_main67 A J I H G F E D C B)
    )
  )
)
(assert
  (forall ( (A Int) (B Int) (C Int) (D Int) (E Int) (F Int) (G Int) (H Int) (I Heap) (J Int) (K Int) (L Int) (M Int) (N Int) (O Int) (P Int) (Q Heap) ) 
    (=>
      (and
        (inv_main36 Q P O N M L K J)
        (let ((a!1 (ite (and (not (<= J 0)) (>= (HeapSize Q) J))
                (select (HeapContents Q) J)
                defObj)))
(let ((a!2 (O_node (node L (data (getnode a!1))))))
(let ((a!3 (ite (and (not (<= J 0)) (>= (HeapSize Q) J))
                (HeapCtor (HeapSize Q) (store (HeapContents Q) J a!2))
                Q)))
  (and (= D L)
       (= C K)
       (= B J)
       (= A (+ (- 1) F))
       (= F N)
       (= E M)
       (= H P)
       (= I a!3)
       ((_ is O_node) a!1)
       (= G O)))))
      )
      (inv_main21 I H G A E B C)
    )
  )
)
(assert
  (forall ( (A Int) (B Int) (C Int) (D Int) (E Int) (F Int) (G Heap) (H Int) (I Int) (J Int) (K Int) (L Int) (M Int) (N Heap) (v_14 Int) ) 
    (=>
      (and
        (inv_main18 N M L K J I H)
        (let ((a!1 (ite (and (not (<= H 0)) (>= (HeapSize N) H))
                (select (HeapContents N) H)
                defObj)))
(let ((a!2 (O_node (node (next (getnode a!1)) I))))
(let ((a!3 (ite (and (not (<= H 0)) (>= (HeapSize N) H))
                (HeapCtor (HeapSize N) (store (HeapContents N) H a!2))
                N)))
  (and (= A H)
       (= C J)
       (= B I)
       (= F M)
       (= E L)
       (= G a!3)
       ((_ is O_node) a!1)
       (= D K)
       (= v_14 A)))))
      )
      (inv_main21 G F E D C A v_14)
    )
  )
)
(assert
  (forall ( (A Int) (B Int) (C Int) (D Int) (E Int) (F Int) (G Int) (H Int) (I Int) (J Heap) ) 
    (=>
      (and
        (inv_main59 J I H G F E D C B A)
        (and (not (<= 1 D)) (not (= B 0)))
      )
      (inv_main65 J I H G F E D C B A)
    )
  )
)
(assert
  (forall ( (A Int) (B Int) (C Int) (D Int) (E Int) (F Int) (G Int) (H Int) (I Int) (J Heap) ) 
    (=>
      (and
        (inv_main59 J I H G F E D C B A)
        (and (= B 0) (not (<= 1 D)) (not (= G 0)))
      )
      (inv_main69 J I H G F E D C B A)
    )
  )
)
(assert
  (forall ( (A Int) (B Int) (C Int) (D Int) (E Int) (F Int) (G Heap) ) 
    (=>
      (and
        (inv_main12 G F E D C B A)
        (let ((a!1 (ite (and (not (<= A 0)) (>= (HeapSize G) A))
                (select (HeapContents G) A)
                defObj)))
  (not ((_ is O_node) a!1)))
      )
      CHC_COMP_FALSE
    )
  )
)
(assert
  (forall ( (A Int) (B Int) (C Int) (D Int) (E Int) (F Int) (G Heap) ) 
    (=>
      (and
        (inv_main18 G F E D C B A)
        (let ((a!1 (ite (and (not (<= A 0)) (>= (HeapSize G) A))
                (select (HeapContents G) A)
                defObj)))
  (not ((_ is O_node) a!1)))
      )
      CHC_COMP_FALSE
    )
  )
)
(assert
  (forall ( (A Int) (B Int) (C Int) (D Int) (E Int) (F Int) (G Int) (H Int) (I Heap) ) 
    (=>
      (and
        (inv_main28 I H G F E D C B A)
        (let ((a!1 (ite (and (not (<= A 0)) (>= (HeapSize I) A))
                (select (HeapContents I) A)
                defObj)))
  (not ((_ is O_node) a!1)))
      )
      CHC_COMP_FALSE
    )
  )
)
(assert
  (forall ( (A Int) (B Int) (C Int) (D Int) (E Int) (F Int) (G Int) (H Int) (I Heap) ) 
    (=>
      (and
        (inv_main34 I H G F E D C B A)
        (let ((a!1 (ite (and (not (<= A 0)) (>= (HeapSize I) A))
                (select (HeapContents I) A)
                defObj)))
  (not ((_ is O_node) a!1)))
      )
      CHC_COMP_FALSE
    )
  )
)
(assert
  (forall ( (A Int) (B Int) (C Int) (D Int) (E Int) (F Int) (G Int) (H Heap) ) 
    (=>
      (and
        (inv_main36 H G F E D C B A)
        (let ((a!1 (ite (and (not (<= A 0)) (>= (HeapSize H) A))
                (select (HeapContents H) A)
                defObj)))
  (not ((_ is O_node) a!1)))
      )
      CHC_COMP_FALSE
    )
  )
)
(assert
  (forall ( (A Int) (B Int) (C Int) (D Int) (E Int) (F Int) (G Heap) ) 
    (=>
      (and
        (inv_main22 G F E D C B A)
        (let ((a!1 (ite (and (not (<= A 0)) (>= (HeapSize G) A))
                (select (HeapContents G) A)
                defObj)))
  (not ((_ is O_node) a!1)))
      )
      CHC_COMP_FALSE
    )
  )
)
(assert
  (forall ( (A Int) (B Int) (C Int) (D Int) (E Int) (F Int) (G Int) (H Int) (I Heap) ) 
    (=>
      (and
        (inv_main49 I H G F E D C B A)
        (let ((a!1 (ite (and (not (<= A 0)) (>= (HeapSize I) A))
                (select (HeapContents I) A)
                defObj)))
  (not ((_ is O_node) a!1)))
      )
      CHC_COMP_FALSE
    )
  )
)
(assert
  (forall ( (A Int) (B Int) (C Int) (D Int) (E Int) (F Int) (G Int) (H Int) (I Heap) ) 
    (=>
      (and
        (inv_main55 I H G F E D C B A)
        (let ((a!1 (ite (and (not (<= A 0)) (>= (HeapSize I) A))
                (select (HeapContents I) A)
                defObj)))
  (not ((_ is O_node) a!1)))
      )
      CHC_COMP_FALSE
    )
  )
)
(assert
  (forall ( (A Int) (B Int) (C Int) (D Int) (E Int) (F Int) (G Int) (H Int) (I Int) (J Heap) ) 
    (=>
      (and
        (inv_main62 J I H G F E D C B A)
        (let ((a!1 (ite (and (not (<= A 0)) (>= (HeapSize J) A))
                (select (HeapContents J) A)
                defObj)))
  (not ((_ is O_node) a!1)))
      )
      CHC_COMP_FALSE
    )
  )
)
(assert
  (forall ( (A Int) (B Int) (C Int) (D Int) (E Int) (F Int) (G Int) (H Int) (I Int) (J Heap) ) 
    (=>
      (and
        (inv_main65 J I H G F E D C B A)
        (let ((a!1 (ite (and (not (<= B 0)) (>= (HeapSize J) B))
                (select (HeapContents J) B)
                defObj)))
  (not ((_ is O_node) a!1)))
      )
      CHC_COMP_FALSE
    )
  )
)
(assert
  (forall ( (A Int) (B Int) (C Int) (D Int) (E Int) (F Int) (G Int) (H Int) (I Int) (J Heap) ) 
    (=>
      (and
        (inv_main67 J I H G F E D C B A)
        (let ((a!1 (ite (and (not (<= C 0)) (>= (HeapSize J) C))
                (select (HeapContents J) C)
                defObj)))
  (not ((_ is O_node) a!1)))
      )
      CHC_COMP_FALSE
    )
  )
)
(assert
  (forall ( (A Int) (B Int) (C Int) (D Int) (E Int) (F Int) (G Int) (H Int) (I Int) (J Heap) ) 
    (=>
      (and
        (inv_main69 J I H G F E D C B A)
        (let ((a!1 (ite (and (not (<= C 0)) (>= (HeapSize J) C))
                (select (HeapContents J) C)
                defObj)))
  (not ((_ is O_node) a!1)))
      )
      CHC_COMP_FALSE
    )
  )
)
(assert
  (forall ( (A Int) (B Int) (C Int) (D Int) (E Int) (F Int) (G Int) (H Int) (I Int) (J Heap) ) 
    (=>
      (and
        (inv_main71 J I H G F E D C B A)
        (let ((a!1 (ite (and (not (<= G 0)) (>= (HeapSize J) G))
                (select (HeapContents J) G)
                defObj)))
  (not ((_ is O_node) a!1)))
      )
      CHC_COMP_FALSE
    )
  )
)
(assert
  (forall ( (A Int) (B Int) (C Int) (D Int) (E Int) (F Int) (G Int) (H Int) (I Int) (J Heap) ) 
    (=>
      (and
        (inv_main70 J I H G F E D C B A)
        (let ((a!1 (ite (and (not (<= C 0)) (>= (HeapSize J) C))
                (select (HeapContents J) C)
                defObj)))
  (not ((_ is O_node) a!1)))
      )
      CHC_COMP_FALSE
    )
  )
)
(assert
  (forall ( (A Int) (B Int) (C Int) (D Int) (E Int) (F Heap) ) 
    (=>
      (and
        (inv_main73 F E D C B A)
        (let ((a!1 (ite (and (not (<= B 0)) (>= (HeapSize F) B))
                (select (HeapContents F) B)
                defObj)))
  (not ((_ is O_node) a!1)))
      )
      CHC_COMP_FALSE
    )
  )
)
(assert
  (forall ( (A Int) (B Int) (C Int) (D Int) (E Int) (F Heap) ) 
    (=>
      (and
        (inv_main76 F E D C B A)
        (let ((a!1 (ite (and (not (<= B 0)) (>= (HeapSize F) B))
                (select (HeapContents F) B)
                defObj)))
  (not ((_ is O_node) a!1)))
      )
      CHC_COMP_FALSE
    )
  )
)
(assert
  (forall ( (A Int) (B Int) (C Int) (D Int) (E Int) (F Int) (G Heap) ) 
    (=>
      (and
        (inv_main88 G F E D C B A)
        (let ((a!1 (ite (and (not (<= A 0)) (>= (HeapSize G) A))
                (select (HeapContents G) A)
                defObj)))
  (not ((_ is O_node) a!1)))
      )
      CHC_COMP_FALSE
    )
  )
)
(assert
  (forall ( (A Int) (B Int) (C Int) (D Int) (E Int) (F Int) (G Int) (H Heap) ) 
    (=>
      (and
        (inv_main92 H G F E D C B A)
        (let ((a!1 (ite (and (not (<= A 0)) (>= (HeapSize H) A))
                (select (HeapContents H) A)
                defObj)))
  (not ((_ is O_node) a!1)))
      )
      CHC_COMP_FALSE
    )
  )
)
(assert
  (forall ( (A Int) (B Int) (C Int) (D Int) (E Int) (F Heap) ) 
    (=>
      (and
        (inv_main95 F E D C B A)
        true
      )
      CHC_COMP_FALSE
    )
  )
)
(assert
  (forall ( (CHC_COMP_UNUSED Bool) ) 
    (=>
      (and
        CHC_COMP_FALSE
      )
      false
    )
  )
)

(check-sat)
(exit)
